p cnf 7230 16
-4258 -5329 -5599 0
-4256 -5327 -5597 0
4258 -5600 0
4256 -5598 0
5603 5604 0
5333 -5604 0
-5333 -5603 0
5601 5602 0
5331 -5602 0
-5331 -5601 0
5599 5600 0
5597 5598 0
5329 -5600 0
5327 -5598 0
4940 -5606 0
5595 5596 0
